Route #1: 107 104 103 69 70 71 74 72 75 78 80 58 55 53 52 110 
Route #2: 106 73 76 77 79 56 60 63 66 64 62 61 59 48 47 46 44 93 
Route #3: 88 117 2 1 3 4 15 14 8 38 39 43 65 57 54 100 
Route #4: 91 90 18 118 17 22 24 27 33 30 31 34 36 29 49 50 51 45 40 101 102 
Route #5: 87 89 85 112 84 113 83 16 19 25 28 35 32 23 20 108 114 96 
Route #6: 82 111 86 92 115 37 41 42 68 67 98 116 99 105 120 
Route #7: 119 81 5 6 7 9 10 11 13 12 26 21 109 97 94 95 
cost 1507.67
